Route 1: 153 167 154 9 120 159 74 141 5 127 50 174
Route 2: 11 63 58 47 77 147 170 148 22 139 45 93 56 138
Route 3: 102 19 117 32 186 104 175 97 53 84 52 151
Route 4: 29 173 69 156 59 177 14
Route 5: 12 95 55 113 21 67 99 90 28 152 123 140 30
Route 6: 73 165 122 89 23 60 48 133 118 65 178 105 34 144
Route 7: 66 35 124 121 128 38 41 88 137 96 146 169 163
Route 8: 184 10 78 17 160 109 44 42 39 87 43 112
Route 9: 61 27 3 94 183 31 70 68 125 15 86 25 172
Route 10: 46 92 40 98 103 85 100 83 129 75 181 36
Route 11: 135 107 82 76 79 101 179 164 145 2 91 8 132
Route 12: 106 162 150 111 81 18 4 158 62 37 119 116
Route 13: 108 54 155 6 182 171 176 13 130 72 136 185 20
Route 14: 33 114 115 143 157 80 24 110 26 161 134 7
Route 15: 166 149 64 71 51 180 49 126 57 168 142 131 16
Cost 27362.43
